s td 14 47 60
b 1 1 2 3 4 7 8 9 11 12 15 17 19 20 21 22 23 24 25 26 27 28 30 31 32 33 34 35 36 39 40 41 42 43 44 46 47 48 49 50 52 53 54 55 57 58 59 60
b 2 1 2 3 7 8 9 10 11 12 15 17 19 20 21 22 23 24 25 26 27 28 30 31 32 33 34 35 36 39 40 41 42 43 44 46 47 48 49 50 52 53 54 55 57 59 60
b 3 1 2 3 7 8 10 11 12 15 17 19 20 21 22 23 25 26 27 28 29 30 31 32 33 34 35 36 39 41 43 44 46 47 48 49 50 52 53 54 57 59 60
b 4 1 2 3 5 7 8 10 11 12 15 17 19 20 21 22 23 25 26 27 28 29 30 31 32 33 35 36 41 43 44 46 47 48 49 50 52 53 54 57 59 60
b 5 2 3 5 7 11 15 17 19 20 23 26 28 29 30 31 33 35 44 47 49 52 53 54 56 60
b 6 1 8 9 10 11 12 16 20 23 24 25 27 31 33 36 40 41 42 43 47 49 50 53 57 59 60
b 7 1 2 3 4 7 8 9 11 12 15 17 19 20 21 22 23 24 25 26 27 28 30 31 32 33 34 35 36 39 40 41 42 43 44 46 47 48 49 50 51 52 53 54 55 58 59 60
b 8 1 2 3 4 7 8 9 11 12 13 15 17 19 20 21 22 23 24 25 26 27 28 30 31 32 33 34 35 36 39 40 41 42 43 44 46 47 48 50 51 53 54 55 58 59 60
b 9 1 2 3 4 7 8 9 11 12 13 15 17 19 20 21 22 23 24 25 26 27 28 30 31 32 33 34 35 36 39 40 41 42 43 44 45 46 47 50 51 53 54 55 58 59 60
b 10 1 2 3 4 7 8 9 11 12 13 15 17 19 20 21 22 23 24 25 26 27 28 30 31 32 33 34 35 37 39 40 41 42 43 44 45 46 50 51 53 54 55 58 59 60
b 11 1 2 3 4 6 7 8 9 11 12 13 15 17 19 20 21 22 23 24 25 26 27 30 31 32 33 34 35 37 39 40 42 44 45 46 50 51 53 54 55 58 59 60
b 12 1 2 3 4 6 7 8 9 11 12 13 15 17 19 20 21 22 23 24 25 26 30 31 33 34 35 37 38 39 40 42 44 45 46 50 51 54 55 58 59 60
b 13 2 4 6 7 8 9 14 21 22 23 25 26 31 33 34 35 38 39 40 42 44 46 51 55 58 59 60
b 14 1 2 3 7 8 9 11 13 15 17 18 23 25 32 33 37 41 42 45 46 50 51 54 58
1 2
1 7
2 3
2 6
3 4
4 5
7 8
8 9
9 10
10 11
10 14
11 12
12 13
